p cnf 100 40
x 6 8 9 10 -12 14 -15 -16 -19 20 21 22 -23 -24 26 27 28 -29 30 31 -34 38 42 43 50 51 56 57 -60 -63 -64 -65 69 -70 71 74 76 -78 79 -80 -86 -87 93 95 -96 97 99 -100 0
x 1 2 3 4 5 6 7 -10 -14 -15 16 18 19 -25 -26 27 28 -30 -34 -36 37 40 -42 -44 -45 -48 49 -50 51 52 -54 -55 57 62 -67 69 -70 71 -72 75 -78 -79 82 -83 -86 -87 -88 -90 92 93 -96 98 100 0
x 3 -5 7 8 9 11 13 -15 -18 -21 26 28 -29 -30 33 36 38 39 -40 -43 -46 -48 50 -52 56 -59 -65 -67 -68 -70 -71 75 -78 80 -81 -82 83 85 89 91 92 -93 -95 -96 100 0
x -1 4 -5 9 -11 -12 13 -14 15 16 -17 18 19 20 -21 -27 -28 -29 -30 -33 -34 -35 -37 40 -49 50 51 -52 -53 -54 -55 -56 57 58 -59 -60 61 -62 -63 68 70 71 72 73 -74 -75 76 77 78 80 81 -83 84 85 86 87 -94 -97 98 99 100 0
x -1 3 4 6 8 14 -16 18 -20 21 23 -24 -25 26 30 -31 32 37 39 -40 41 44 49 50 51 -52 -53 56 -57 -64 66 -67 -70 -72 73 -74 -78 -79 -81 -83 84 -85 86 88 -90 -91 92 93 95 -96 -97 98 0
x 2 -3 -6 8 9 11 14 -15 16 -17 -21 -22 25 -27 30 31 32 -34 35 -36 39 43 44 -45 47 48 -49 51 52 54 57 -60 -61 -63 -64 -66 -69 70 -72 -74 -76 -77 -78 -82 84 92 -93 -94 98 -99 0
x -3 4 -6 -9 -10 11 -12 -13 -15 -20 21 26 28 29 -34 35 -36 -37 42 43 -44 46 47 52 -57 -58 -60 62 -64 -67 -68 70 -72 74 77 -79 80 81 82 83 85 86 91 94 -95 -97 -99 0
x -1 -2 3 5 -9 -11 14 -18 21 -22 -25 29 -30 33 -34 -35 38 -42 43 46 -47 -49 51 53 54 55 56 -62 -65 67 68 69 -70 73 74 75 -77 83 84 85 -87 88 89 91 -92 -95 -96 -97 99 0
x 1 -2 3 7 -9 10 11 16 -18 21 -22 25 -28 34 -35 36 38 -40 -41 44 46 -47 -48 51 53 56 57 -58 -59 -64 -65 -66 67 68 71 72 -74 -77 78 -79 81 -83 86 -87 88 -91 -92 94 96 -97 98 0
x -1 4 6 -10 11 -12 13 16 18 -19 22 23 -25 -26 -27 28 29 -31 -33 37 -39 -41 42 -44 45 47 -49 -51 56 57 -58 -59 60 61 -66 -67 68 69 -73 74 75 -77 78 -80 -82 83 -85 86 87 -89 90 92 -93 -94 -95 97 0
x -1 7 -9 -10 12 -13 -16 -17 19 -21 23 -25 -27 28 -30 32 33 -34 35 -37 -38 40 42 45 47 -48 50 52 -53 -54 55 56 57 58 60 -61 64 66 67 70 71 -72 74 -79 -82 83 84 -86 -88 -89 90 -91 96 -97 0
x 1 3 -9 10 11 -13 -14 -15 -16 17 18 20 -21 -27 28 30 31 33 -37 -38 39 44 48 49 -52 -54 -55 -56 59 60 63 -64 66 67 74 -80 81 83 85 87 90 -91 93 97 99 0
x 3 -4 -7 -9 10 -12 15 -17 -18 -22 24 -25 26 -29 33 -34 -36 -37 -38 -40 45 -47 49 -50 51 53 -54 55 -56 59 60 61 62 66 68 -69 70 71 73 -75 76 -77 78 79 80 -81 82 83 -84 -85 -86 87 -88 -90 91 92 93 -94 97 -98 99 100 0
x 3 7 9 11 12 17 -19 20 24 28 29 30 34 37 -41 -44 53 54 -57 -62 66 -68 71 -72 -73 -74 -78 -79 -80 81 82 -83 84 85 -86 88 -89 91 -94 95 98 100 0
x -4 7 8 12 13 17 -18 -24 25 -27 30 31 -33 -34 35 36 37 -38 39 41 -43 -45 47 48 51 -52 53 -54 56 -58 -61 64 65 -69 73 76 -78 79 -81 -83 -84 -85 87 -88 90 91 -92 95 97 -99 0
x -2 3 4 -5 -6 -9 -11 -14 15 -16 19 -20 21 23 -30 -34 35 -37 -40 41 -42 -43 44 -45 46 -48 50 -51 52 55 -57 59 -61 64 67 68 -72 73 74 75 -77 79 80 -81 -83 -84 -85 -86 87 89 -92 93 94 -98 -100 0
x -1 -3 8 -14 15 -16 -17 19 20 -21 23 -30 31 -32 35 36 37 38 39 -40 42 44 -51 -52 -54 56 58 61 64 65 66 -67 69 -74 77 80 81 82 84 -88 90 -93 94 98 -100 0
x -1 -2 3 6 7 8 10 -12 -14 15 -18 20 -21 23 -24 -31 -32 -33 35 -37 39 -42 43 -44 -45 46 -47 49 -51 -52 53 -57 -59 60 62 63 -68 69 71 72 73 -75 76 77 82 85 -88 90 -93 -96 -98 -99 -100 0
x 1 -7 -12 -13 -19 -21 -22 -26 27 28 -30 31 -34 -35 36 38 39 40 41 -42 -47 -51 -52 -53 -54 -55 -63 -64 65 -67 68 72 74 75 77 -78 -79 -82 -83 -86 88 89 -90 -92 94 95 96 -98 100 0
x 3 -5 7 9 -10 -11 13 -15 -16 17 18 20 -21 24 -25 -26 -27 -28 -32 -33 35 36 39 44 46 -47 52 -53 54 55 -56 58 59 60 -61 -63 67 68 75 76 78 79 82 83 -89 -90 -92 95 96 0
x -1 -2 4 11 -12 -18 -20 -23 24 -25 -28 30 31 33 -34 35 -44 46 48 -49 -51 -53 54 -55 57 -59 60 61 -62 -64 -66 -67 -70 71 -77 -79 -80 -81 -82 -88 90 -91 -96 97 99 0
x 1 -2 4 -9 -14 15 -16 17 19 20 26 -31 32 -36 37 39 40 42 -44 -46 47 -48 -50 -51 52 -53 -55 56 -58 -61 64 66 68 -70 -72 -75 -76 78 79 -81 -82 -83 -85 87 88 89 -90 93 97 0
x -2 -3 4 -9 11 13 15 -16 19 -20 -30 -31 36 44 47 49 -50 -51 52 53 54 55 56 60 -61 -64 65 68 85 86 89 91 93 -97 99 0
x -3 -6 7 -8 -10 -11 14 19 23 25 27 -30 -32 39 -41 -43 44 -46 47 48 -49 -51 52 -54 -55 -56 57 -58 -60 -61 62 -63 65 67 -74 75 76 77 -79 81 82 -85 -87 -88 -89 90 -91 -92 94 -97 -98 0
x 1 -2 4 6 -7 13 -14 15 16 -18 19 -22 -26 -28 30 31 -33 39 42 -43 44 47 48 -49 50 -52 -57 -59 -61 -62 63 65 -66 69 71 74 76 -79 80 -81 84 87 -89 90 91 92 93 97 -99 0
x -1 3 7 8 -10 11 12 15 17 -19 20 25 -27 -28 -31 37 38 39 -40 -41 -42 45 50 52 53 55 56 -58 -62 -64 -65 -66 -67 71 -75 76 -79 81 -82 -83 85 -87 89 -90 92 -96 98 0
x 1 6 7 9 -10 -12 -13 -15 -16 -18 -20 -22 -23 24 25 -26 -28 30 31 -32 -35 -36 38 39 40 -41 -46 -47 -48 50 -54 56 -57 59 60 62 63 -68 -70 71 75 -76 82 83 86 -88 90 -92 94 -95 -98 -100 0
x -1 3 4 5 -8 9 -11 -12 -13 14 -16 -17 19 -21 22 -24 25 26 -27 28 -29 -31 -33 35 -38 39 40 41 -43 -44 -46 50 -51 -52 54 -55 57 -63 -64 -66 -68 70 -73 74 84 87 -93 94 95 -99 0
x -2 4 -7 14 -15 -16 -17 18 -19 -20 22 -23 -25 27 28 29 -30 31 -32 33 -38 -39 40 -41 42 43 -44 -46 47 -49 -50 52 53 -54 -55 -56 58 59 60 61 -64 66 -67 69 70 73 75 -77 82 84 -86 87 -88 91 92 -95 96 -98 0
x -1 -6 -7 10 11 -13 -14 16 18 -20 22 -24 -25 -26 -28 31 33 34 -35 36 37 38 -39 -42 -44 47 52 54 -55 -56 64 -70 -71 -72 76 -77 82 -83 84 -85 90 -91 92 95 -97 -98 99 100 0
x -1 5 -6 8 -9 -11 -12 -13 -14 15 -16 17 18 -19 20 -24 -25 -27 -30 -32 33 35 37 39 -41 -42 44 -48 49 -50 -51 -52 54 -56 -57 58 -62 63 64 -65 66 68 69 -72 -74 77 79 80 84 89 92 -93 94 -97 99 100 0
x 3 -6 7 14 18 19 21 -22 23 -24 27 28 30 35 37 42 -43 45 -46 48 -49 -54 55 -57 -60 61 -63 65 66 -67 -69 -72 74 -75 76 77 -80 81 84 -91 92 93 -95 0
x 1 2 3 4 7 -9 -10 -12 13 -18 19 -20 23 29 -31 -32 33 34 -35 -37 -41 -52 53 54 56 57 59 -60 -61 -62 -64 68 72 73 -74 75 -76 -77 -79 84 86 -93 94 -95 97 -98 -99 100 0
x 2 4 7 -9 11 14 -15 16 18 -19 20 21 22 -24 -25 -26 29 32 -35 -40 42 -43 46 49 -51 -52 -54 56 58 63 -66 67 -69 -70 -72 -74 75 -76 -77 82 86 -87 -92 94 -100 0
x -1 4 6 7 9 16 -17 18 -19 -21 22 -23 -25 31 -32 33 -34 35 36 37 -43 45 47 48 -49 52 53 -58 -59 60 -61 -67 -69 71 76 -77 80 -83 84 85 -90 -91 93 -96 0
x -3 -7 8 -11 13 -14 15 21 -22 26 -31 -32 36 -40 44 45 47 -49 50 -51 53 -55 56 -59 61 -64 65 -68 -70 74 -76 -77 79 82 83 -85 -86 87 89 90 -91 92 -93 -95 96 -97 99 -100 0
x -1 5 7 12 -13 20 21 22 23 25 -28 29 34 39 -40 -43 -44 -46 49 50 51 53 54 -56 57 -59 -61 62 65 66 -67 -68 -69 70 71 -77 -79 80 -82 -84 -85 87 89 -90 92 93 94 -100 0
x -3 -6 -10 12 13 -15 20 -23 24 -26 27 28 -29 -32 -33 -34 -35 -37 -39 40 44 -45 48 49 52 54 -57 58 59 -61 -62 -68 -72 73 74 -75 78 -80 81 83 86 -88 -89 -91 -92 93 94 -95 97 0
x 1 -3 5 6 -8 -10 -11 13 15 18 24 26 31 -36 -40 41 44 -45 -47 -50 54 55 -56 57 61 65 -69 70 -71 72 -74 77 80 -81 82 83 90 -93 -94 -96 97 98 100 0
x 1 -3 4 -6 8 13 15 -16 17 20 21 -22 -23 -24 25 26 -31 -32 -39 -44 -45 47 52 55 -56 57 58 -61 -62 -65 66 68 69 71 -79 80 81 82 84 -85 87 -89 90 91 93 -94 -95 97 98 100 0
g -30